Version identifier: 22.1.0.0 | 2022-03-09 | 1a383f8ce
CPXPARAM_Read_DataCheck                          1
CPXPARAM_Threads                                 1
CPXPARAM_TimeLimit                               3600
Tried aggregator 2 times.
MIP Presolve eliminated 1939 rows and 112 columns.
MIP Presolve modified 31012 coefficients.
Aggregator did 142 substitutions.
Reduced MIP has 7680 rows, 726 columns, and 55776 nonzeros.
Reduced MIP has 520 binaries, 0 generals, 0 SOSs, and 0 indicators.
Presolve time = 0.13 sec. (101.38 ticks)
Found incumbent of value 120.840701 after 0.18 sec. (136.18 ticks)
Probing fixed 4 vars, tightened 16 bounds.
Probing time = 0.05 sec. (35.71 ticks)
Tried aggregator 1 time.
Detecting symmetries...
MIP Presolve eliminated 8 rows and 4 columns.
MIP Presolve modified 407 coefficients.
Reduced MIP has 7672 rows, 722 columns, and 55652 nonzeros.
Reduced MIP has 516 binaries, 0 generals, 0 SOSs, and 0 indicators.
Presolve time = 0.08 sec. (29.52 ticks)
Probing time = 0.02 sec. (6.44 ticks)
Clique table members: 3189.
MIP emphasis: balance optimality and feasibility.
MIP search method: dynamic search.
Parallel mode: none, using 1 thread.
Root relaxation solution time = 0.02 sec. (24.78 ticks)

        Nodes                                         Cuts/
   Node  Left     Objective  IInf  Best Integer    Best Bound    ItCnt     Gap

*     0+    0                          120.8407      100.1345            17.14%
      0     0      100.1345   135      120.8407      100.1345      237   17.14%
      0     0      100.1345    76      120.8407     Cuts: 612      654   17.14%
      0     0      100.1345    52      120.8407     Cuts: 680     1205   17.14%
      0     0      100.1345    43      120.8407     Cuts: 429     1725   17.14%
*     0+    0                          119.6226      100.1345            16.29%
      0     0  -1.00000e+75     0      119.6226      100.1345     1725   16.29%
      0     0      100.1345    31      119.6226     Cuts: 194     2453   16.29%
      0     0      100.1345    31      119.6226     Cuts: 143     3235   16.29%
Detecting symmetries...
      0     0      100.1345    41      119.6226      Cuts: 56     3536   16.29%
*     0+    0                          100.1728      100.1345             0.04%
Detecting symmetries...

Repeating presolve.
Tried aggregator 5 times.
MIP Presolve eliminated 7336 rows and 596 columns.
MIP Presolve modified 482 coefficients.
Aggregator did 11 substitutions.
Reduced MIP has 325 rows, 115 columns, and 1228 nonzeros.
Reduced MIP has 35 binaries, 0 generals, 0 SOSs, and 0 indicators.
Presolve time = 0.01 sec. (10.89 ticks)
Probing fixed 0 vars, tightened 19 bounds.
Probing time = 0.00 sec. (0.33 ticks)
Cover probing fixed 0 vars, tightened 111 bounds.
Tried aggregator 2 times.
MIP Presolve eliminated 51 rows and 1 columns.
MIP Presolve modified 321 coefficients.
Aggregator did 3 substitutions.
Reduced MIP has 271 rows, 111 columns, and 1054 nonzeros.
Reduced MIP has 35 binaries, 0 generals, 0 SOSs, and 0 indicators.
Presolve time = 0.00 sec. (1.00 ticks)
Probing fixed 0 vars, tightened 17 bounds.
Probing time = 0.00 sec. (0.29 ticks)
Tried aggregator 1 time.
Detecting symmetries...
MIP Presolve eliminated 1 rows and 0 columns.
MIP Presolve modified 130 coefficients.
Reduced MIP has 270 rows, 111 columns, and 1050 nonzeros.
Reduced MIP has 35 binaries, 0 generals, 0 SOSs, and 0 indicators.
Presolve time = 0.00 sec. (0.64 ticks)
Represolve time = 0.03 sec. (21.63 ticks)
Probing fixed 0 vars, tightened 3 bounds.
Probing time = 0.00 sec. (0.25 ticks)
Clique table members: 81.
MIP emphasis: balance optimality and feasibility.
MIP search method: dynamic search.
Parallel mode: none, using 1 thread.
Root relaxation solution time = 0.01 sec. (2.19 ticks)

        Nodes                                         Cuts/
   Node  Left     Objective  IInf  Best Integer    Best Bound    ItCnt     Gap

*     0+    0                          100.1728      100.1345             0.04%
      0     0      100.1349     9      100.1728      100.1349     3724    0.04%
      0     0      100.1349     7      100.1728      Cuts: 27     3727    0.04%
      0     0      100.1351     7      100.1728   Impl Bds: 3     3735    0.04%
      0     2      100.1351     7      100.1728      100.1351     3735    0.04%
Elapsed time = 2.54 sec. (2254.58 ticks, tree = 0.01 MB, solutions = 3)
*     4     2      integral     0      100.1646      100.1364     3809    0.03%

GUB cover cuts applied:  3
Clique cuts applied:  6
Cover cuts applied:  1
Implied bound cuts applied:  20
Mixed integer rounding cuts applied:  106
Gomory fractional cuts applied:  11

Root node processing (before b&c):
  Real time             =    2.55 sec. (2254.62 ticks)
Sequential b&c:
  Real time             =    0.00 sec. (2.20 ticks)
                          ------------
Total (root+branch&cut) =    2.55 sec. (2256.82 ticks)
